coords = array2d(1..59, 1..2, [332, 659, 267, 139, 135, 939, 591, 149, 386,
    580, 479, 804, 487, 211, 611, 254, 703, 420, 853, 310, 726, 754,
    377, 387, 382, 99, 325, 479, 908, 272, 375, 735, 595, 185, 85, 46,
    664, 474, 780, 485, 843, 878, 772, 358, 495, 122, 451, 434, 5,
    230, 7, 881, 128, 466, 291, 378, 588, 999, 206, 870, 674, 644,
    434, 404, 428, 198, 164, 982, 376, 938, 139, 191, 802, 201, 368,
    695, 50, 81, 958, 140, 940, 647, 86, 647, 134, 193, 145, 12, 617,
    459, 947, 401, 532, 22, 83, 936, 930, 865, 294, 598, 955, 804,
    908, 822, 704, 952, 485, 49, 853, 23, 455, 55, 720, 768, 83, 768,
    709, 748]);

n = 59;

